69
0 29 18 66 26 28 43 58 60 41 
50 61 46 42 59 32 10 1 6 30 
36 21 11 34 19 38 17 12 53 37 
35 16 7 27 15 23 4 2 63 47 
39 9 31 67 68 51 25 56 52 13 
54 44 14 48 40 33 49 57 5 22 
64 8 45 55 65 62 24 3 20 
